WARNING: for repeatability, setting FPU to use double precision
Reading from standard input... Use '--help' for help.
============================[ Problem Statistics ]=============================
|                                                                             |
|  Number of variables:          8000                                         |
|  Number of clauses:           68632                                         |
|  Parse time:                   0.01 s                                       |
|  Eliminated clauses:           0.00 Mb                                      |
|  Simplification time:          0.01 s                                       |
|                                                                             |
LBD Based Clause Deletion : 1
Rapid Deletion : 1
Almost Conflict : 1
Anti Exploration : 1
============================[ Search Statistics ]==============================
| Conflicts |          ORIGINAL         |          LEARNT          | Progress |
|           |    Vars  Clauses Literals |    Limit  Clauses Lit/Cl |          |
===============================================================================
===============================================================================
restarts              : 1
conflicts             : 9              (387 /sec)
decisions             : 169            (0.00 % random) (7274 /sec)
propagations          : 8906           (383301 /sec)
conflict literals     : 312            (1.27 % deleted)
actual reward         : 0.112955
Memory used           : 11.00 MB
CPU time              : 0.023235 s

SATISFIABLE
